(set-info :smt-lib-version 2.6)
(set-logic QF_UFLRA)
(set-info :source |
MathSat group

|)
(set-info :category "random")
(set-info :status sat)
(declare-fun x0 () Real)
(declare-fun x1 () Real)
(declare-fun x2 () Real)
(declare-fun x3 () Real)
(declare-fun x4 () Real)
(declare-fun x5 () Real)
(declare-fun x6 () Real)
(declare-fun x7 () Real)
(declare-fun x8 () Real)
(declare-fun x9 () Real)
(declare-fun x10 () Real)
(declare-fun x11 () Real)
(declare-fun x12 () Real)
(declare-fun x13 () Real)
(declare-fun x14 () Real)
(declare-fun x15 () Real)
(declare-fun x16 () Real)
(declare-fun x17 () Real)
(declare-fun x18 () Real)
(declare-fun x19 () Real)
(declare-fun x20 () Real)
(declare-fun x21 () Real)
(declare-fun x22 () Real)
(declare-fun x23 () Real)
(declare-fun x24 () Real)
(declare-fun x25 () Real)
(declare-fun x26 () Real)
(declare-fun x27 () Real)
(declare-fun x28 () Real)
(declare-fun x29 () Real)
(declare-fun x30 () Real)
(declare-fun x31 () Real)
(declare-fun x32 () Real)
(declare-fun x33 () Real)
(declare-fun x34 () Real)
(declare-fun x35 () Real)
(declare-fun x36 () Real)
(declare-fun x37 () Real)
(declare-fun x38 () Real)
(declare-fun x39 () Real)
(declare-fun x40 () Real)
(declare-fun x41 () Real)
(declare-fun x42 () Real)
(declare-fun x43 () Real)
(declare-fun x44 () Real)
(declare-fun x45 () Real)
(declare-fun x46 () Real)
(declare-fun x47 () Real)
(declare-fun x48 () Real)
(declare-fun x49 () Real)
(declare-fun f0_1 (Real) Real)
(declare-fun f0_2 (Real Real) Real)
(declare-fun f0_3 (Real Real Real) Real)
(declare-fun f0_4 (Real Real Real Real) Real)
(declare-fun P0 () Bool)
(declare-fun P1 () Bool)
(declare-fun P2 () Bool)
(declare-fun P3 () Bool)
(declare-fun P4 () Bool)
(declare-fun P5 () Bool)
(declare-fun P6 () Bool)
(declare-fun P7 () Bool)
(declare-fun P8 () Bool)
(declare-fun P9 () Bool)
(declare-fun P10 () Bool)
(declare-fun P11 () Bool)
(declare-fun P12 () Bool)
(declare-fun P13 () Bool)
(declare-fun P14 () Bool)
(declare-fun P15 () Bool)
(declare-fun P16 () Bool)
(declare-fun P17 () Bool)
(declare-fun P18 () Bool)
(declare-fun P19 () Bool)
(declare-fun P20 () Bool)
(declare-fun P21 () Bool)
(declare-fun P22 () Bool)
(declare-fun P23 () Bool)
(declare-fun P24 () Bool)
(declare-fun P25 () Bool)
(declare-fun P26 () Bool)
(declare-fun P27 () Bool)
(declare-fun P28 () Bool)
(declare-fun P29 () Bool)
(declare-fun P30 () Bool)
(declare-fun P31 () Bool)
(declare-fun P32 () Bool)
(declare-fun P33 () Bool)
(declare-fun P34 () Bool)
(declare-fun P35 () Bool)
(declare-fun P36 () Bool)
(declare-fun P37 () Bool)
(declare-fun P38 () Bool)
(declare-fun P39 () Bool)
(declare-fun P40 () Bool)
(declare-fun P41 () Bool)
(declare-fun P42 () Bool)
(declare-fun P43 () Bool)
(declare-fun P44 () Bool)
(declare-fun P45 () Bool)
(declare-fun P46 () Bool)
(declare-fun P47 () Bool)
(declare-fun P48 () Bool)
(declare-fun P49 () Bool)
(assert (let ((?v_60 (distinct (- (+ (* 27 x44) (* 3 x23)) (* 5 x39)) 26)) (?v_19 (* 26 x19)) (?v_94 (< (- (- (* 24 x0) (* 18 x6)) (* 9 x26)) 11)) (?v_35 (* 12 x44)) (?v_205 (= (+ (- (* 24 x39) (* 2 x11)) (* 15 x47)) 17)) (?v_63 (* 13 x43)) (?v_175 (* 18 x34))) (let ((?v_204 (<= (- (- (* 27 x8) ?v_175) (* 8 x43)) 6)) (?v_33 (<= (- (- (* 17 x47) (* 2 x48)) (* 15 x23)) 1)) (?v_96 (= (f0_2 x33 x48) (f0_1 x20))) (?v_36 (= x3 (f0_1 x12))) (?v_51 (f0_1 x37))) (let ((?v_76 (= (f0_2 x14 x38) ?v_51)) (?v_117 (distinct (f0_2 x11 x19) x6)) (?v_20 (f0_1 x43))) (let ((?v_28 (= (f0_1 x19) ?v_20)) (?v_68 (f0_1 x1))) (let ((?v_12 (distinct (f0_1 x31) ?v_68)) (?v_0 (f0_1 x44))) (let ((?v_104 (= (f0_2 x5 x21) ?v_0)) (?v_95 (= (f0_2 x13 x34) x34)) (?v_1 (= (f0_2 x41 x23) x24)) (?v_74 (f0_1 x9))) (let ((?v_86 (= (f0_2 x16 x21) ?v_74)) (?v_75 (= x8 (f0_1 x41))) (?v_79 (= (f0_2 x16 x13) (f0_2 x26 x14))) (?v_178 (= x41 (f0_2 x13 x23))) (?v_168 (= (f0_2 x45 x21) x49)) (?v_122 (distinct x15 (f0_2 x20 x48))) (?v_181 (distinct (f0_2 x32 x12) (f0_2 x8 x34))) (?v_136 (distinct x16 (f0_1 x21))) (?v_156 (= (f0_2 x5 x29) (f0_2 x1 x0))) (?v_192 (distinct (f0_2 x44 x6) (f0_2 x37 x7))) (?v_112 (= (f0_2 x30 x37) (f0_1 x18))) (?v_105 (= (f0_2 x26 x38) (f0_2 x38 x30))) (?v_88 (distinct x13 x18)) (?v_245 (= (f0_2 x41 x5) (f0_1 x29))) (?v_52 (distinct x34 (f0_2 x29 x21))) (?v_121 (= (f0_2 x33 x17) (f0_2 x42 x48))) (?v_3 (= ?v_0 x46)) (?v_32 (= (f0_1 x38) (f0_2 x6 x1))) (?v_194 (= x23 ?v_68)) (?v_46 (= (f0_2 x26 x3) (f0_2 x30 x2))) (?v_176 (= x35 (f0_2 x11 x7))) (?v_21 (f0_1 x15))) (let ((?v_131 (= ?v_20 ?v_21)) (?v_41 (distinct (f0_2 x29 x11) (f0_2 x49 x0))) (?v_6 (f0_1 x13))) (let ((?v_166 (= ?v_6 (f0_2 x11 x36))) (?v_180 (= x46 x26)) (?v_83 (= ?v_6 x42)) (?v_38 (= x15 x36)) (?v_126 (= (f0_1 x35) ?v_74)) (?v_238 (= x33 x31)) (?v_18 (= x33 (f0_2 x36 x4))) (?v_130 (= (f0_2 x38 x34) ?v_51)) (?v_184 (= x15 ?v_21)) (?v_183 (distinct x18 x29)) (?v_187 (distinct (f0_1 x45) (f0_1 x7))) (?v_115 (f0_1 x17)) (?v_116 (f0_1 x28))) (let ((?v_185 (distinct ?v_115 ?v_116)) (?v_98 (= ?v_115 x9)) (?v_73 (= (f0_2 x44 x2) (f0_1 x16))) (?v_114 (distinct (f0_1 x23) (f0_2 x6 x33))) (?v_89 (distinct x9 (f0_1 x26))) (?v_123 (= ?v_116 (f0_1 x27))) (?v_34 (distinct (f0_2 x19 x46) x15))) (let ((?v_42 (not ?v_98)) (?v_233 (not ?v_1)) (?v_23 (not ?v_104)) (?v_78 (not ?v_245)) (?v_129 (not P44)) (?v_2 (not ?v_95)) (?v_82 (not ?v_123)) (?v_54 (not P1)) (?v_143 (not ?v_33)) (?v_64 (not ?v_83)) (?v_25 (not ?v_32)) (?v_125 (not ?v_60)) (?v_134 (not P42)) (?v_22 (not ?v_181)) (?v_69 (not ?v_166)) (?v_191 (not P13)) (?v_257 (not ?v_176)) (?v_103 (not P38)) (?v_157 (not P9)) (?v_127 (not ?v_136)) (?v_47 (not ?v_131)) (?v_29 (not P24)) (?v_59 (not P4)) (?v_108 (not ?v_36)) (?v_220 (not P48)) (?v_162 (not P40)) (?v_203 (not ?v_112)) (?v_45 (not ?v_28)) (?v_39 (not P29)) (?v_66 (not ?v_168)) (?v_216 (not P5)) (?v_141 (not ?v_114)) (?v_72 (not P2)) (?v_174 (not P28)) (?v_87 (not ?v_238)) (?v_154 (not ?v_126)) (?v_65 (not ?v_38)) (?v_242 (not ?v_3)) (?v_97 (not P25)) (?v_160 (not ?v_41)) (?v_153 (not ?v_178)) (?v_190 (not ?v_79)) (?v_128 (not ?v_94)) (?v_148 (not ?v_180)) (?v_241 (not P33)) (?v_163 (not P30)) (?v_150 (not P37)) (?v_225 (not P36)) (?v_159 (not P17)) (?v_133 (not P10)) (?v_62 (not ?v_89)) (?v_218 (not P6)) (?v_137 (not P20)) (?v_179 (not P12)) (?v_142 (not ?v_46)) (?v_111 (not ?v_194)) (?v_135 (not ?v_73)) (?v_80 (not ?v_75)) (?v_146 (not P41)) (?v_147 (not ?v_86)) (?v_91 (not ?v_121)) (?v_195 (not ?v_96)) (?v_118 (not P7)) (?v_251 (not P15)) (?v_199 (not P46)) (?v_155 (not ?v_185)) (?v_119 (not ?v_122)) (?v_247 (not P49)) (?v_169 (not ?v_105)) (?v_145 (not P39)) (?v_252 (not ?v_34)) (?v_158 (not ?v_52)) (?v_244 (not P18)) (?v_140 (not P43)) (?v_239 (not P34)) (?v_149 (not ?v_117)) (?v_152 (not P45)) (?v_221 (not ?v_156)) (?v_208 (not ?v_192)) (?v_200 (not ?v_12)) (?v_237 (not P27)) (?v_171 (not ?v_18)) (?v_229 (not P22)) (?v_240 (not P11)) (?v_188 (not ?v_130)) (?v_206 (not ?v_88)) (?v_219 (not P19)) (?v_254 (not ?v_204)) (?v_234 (not P47)) (?v_236 (not ?v_183)) (?v_211 (not ?v_184)) (?v_226 (not P0)) (?v_223 (not ?v_76)) (?v_227 (not P8)) (?v_235 (not P31)) (?v_230 (not P21)) (?v_258 (not P23)) (?v_249 (not ?v_205)) (?v_250 (not P3)) (?v_255 (not P14)) (?v_256 (not P35))) (let ((?v_262 (or ?v_160 ?v_179)) (?v_259 (not P32)) (?v_261 (not ?v_187)) (?v_16 (<= (+ (- 0 (* 22 x31)) (* 14 x27)) 13))) (let ((?v_13 (not ?v_16)) (?v_10 (distinct (- (+ (* 24 x36) x16) (* 12 x41)) 11)) (?v_49 (< (+ (* 27 x12) (* 27 x43) (* 25 x21)) 11))) (let ((?v_43 (not ?v_49)) (?v_186 (not ?v_10)) (?v_99 (<= (+ (* 8 x36) (* 27 x40) (* 7 x20)) 13))) (let ((?v_139 (not ?v_99)) (?v_61 (<= (+ (* 3 x41) (* 15 x16) (* 25 x15)) 10))) (let ((?v_85 (not ?v_61)) (?v_177 (< (+ (* 12 x42) (* 19 x7) (* 18 x19)) 12))) (let ((?v_231 (not ?v_177)) (?v_138 (distinct (* 9 x4) 3))) (let ((?v_197 (not ?v_138)) (?v_92 (< (+ (* 6 x46) (* 7 x26)) 8))) (let ((?v_212 (not ?v_92)) (?v_81 (<= (- (- (* (- 10) x34) (* 11 x17)) (* 15 x11)) (- 19))) (?v_50 (<= (+ (- 0 (* 19 x5)) (* 25 x41)) (- 16)))) (let ((?v_15 (not ?v_50)) (?v_102 (<= (+ (- (* 5 x48) 0) (* 9 x22)) (- 6))) (?v_189 (<= (+ (* (- 5) x17) (* 19 x23) (* 17 x24)) 4)) (?v_30 (= (+ (* (- 8) x5) (* 3 x4) (* 15 x17)) 14)) (?v_93 (< (+ (- (* (- 19) x41) (* 25 x4)) (* 24 x2)) (- 3)))) (let ((?v_5 (not ?v_93)) (?v_17 (<= (+ (* (- 20) x34) (* 17 x12) (* 19 x2)) 22)) (?v_228 (<= (- (- (* (- 18) x44) (* 12 x4)) (* 11 x37)) (- 13)))) (let ((?v_71 (not ?v_228)) (?v_164 (< (+ (- (* (- 2) x37) (* 20 x4)) (* 10 x8)) 4))) (let ((?v_55 (not ?v_164)) (?v_48 (distinct (- (* 14 x18) 0) (- 5))) (?v_9 (<= (- (+ (* 7 x40) (* 27 x47)) (* 10 x4)) (- 29))) (?v_44 (* (- 18) x45))) (let ((?v_4 (<= (- (- ?v_44 (* 21 x40)) (* 24 x48)) (- 9))) (?v_8 (<= (+ (- (* 7 x47) ?v_63) ?v_175) (- 17)))) (let ((?v_11 (not ?v_4)) (?v_217 (< (+ (* (- 22) x11) (* 11 x11) (* 17 x34)) 3))) (let ((?v_14 (not ?v_217)) (?v_7 (<= (- (* (- 21) x48) (* 7 x25)) (- 4)))) (let ((?v_90 (not ?v_7)) (?v_165 (<= (- (+ (* (- 25) x22) x26) (* 11 x22)) 13))) (let ((?v_232 (not ?v_165)) (?v_24 (= (- (- (* 26 x8) (* 8 x41)) (* 7 x16)) (- 22))) (?v_31 (= (- (- (* (- 4) x48) ?v_19) (* 17 x5)) 24)) (?v_58 (not ?v_8)) (?v_113 (not ?v_9)) (?v_253 (<= (- (- (* (- 17) x36) (* 2 x28)) (* 14 x17)) 11))) (let ((?v_26 (not ?v_253)) (?v_172 (< (+ (* (- 17) x0) (* 3 x32) (* 7 x34)) 13)) (?v_37 (or ?v_14 ?v_15)) (?v_207 (not ?v_17)) (?v_40 (<= (- (+ (* 21 x4) (* 5 x32)) 0) (- 1)))) (let ((?v_173 (not ?v_40)) (?v_27 (< (+ (* 8 x20) (* 24 x3) ?v_19) (- 1)))) (let ((?v_70 (not ?v_27)) (?v_56 (not ?v_24)) (?v_246 (distinct (- (* (- 12) x40) ?v_35) 14))) (let ((?v_120 (not ?v_246)) (?v_110 (< (+ (* (- 7) x6) (* 8 x27) (* 9 x41)) (- 14)))) (let ((?v_109 (not ?v_110)) (?v_124 (not ?v_30)) (?v_107 (<= (+ (- (* 11 x13) (* 5 x17)) ?v_35) (- 18)))) (let ((?v_53 (not ?v_107)) (?v_57 (<= (+ (- ?v_44 (* 22 x40)) (* 20 x9)) 23)) (?v_196 (not ?v_48)) (?v_84 (distinct (+ (* 6 x11) (* 5 x20) (* 2 x42)) (- 21))) (?v_167 (not ?v_31)) (?v_100 (= (- (* (- 12) x25) (* 3 x9)) (- 7)))) (let ((?v_101 (not ?v_100)) (?v_67 (< (- (- (* (- 23) x34) (* 21 x44)) (* 18 x20)) 15))) (let ((?v_77 (not ?v_67)) (?v_106 (< (+ (- (* (- 8) x4) (* 4 x25)) (* 23 x11)) 12)) (?v_144 (< (+ (- (* (- 12) x10) ?v_63) (* 25 x25)) (- 16)))) (let ((?v_248 (not ?v_144)) (?v_132 (not ?v_81)) (?v_224 (<= (+ (- (* 22 x19) (* 18 x40)) (* 15 x43)) (- 6)))) (let ((?v_182 (not ?v_224)) (?v_193 (<= (+ (* (- 20) x43) (* 8 x25) (* 6 x39)) (- 16)))) (let ((?v_243 (not ?v_193)) (?v_201 (not ?v_102)) (?v_161 (< (+ (- (* (- 6) x29) (* 9 x1)) (* 11 x47)) 21)) (?v_170 (not ?v_57)) (?v_213 (< (+ (- (* 6 x33) (* 26 x39)) (* 24 x24)) (- 28)))) (let ((?v_151 (not ?v_213)) (?v_209 (not ?v_106)) (?v_198 (not ?v_161)) (?v_214 (distinct (- (+ (* (- 4) x7) (* 11 x3)) (* 20 x7)) 24))) (let ((?v_202 (not ?v_214)) (?v_222 (= (+ (* (- 3) x2) (* 14 x13) (* 26 x31)) (- 8)))) (let ((?v_210 (not ?v_222)) (?v_260 (not ?v_84)) (?v_215 (not ?v_172))) (and (and (and (and (and (and (and (and (and (and (and (and (and (and (and (and (and (and (and (and (and (and (and (and (and (and (and (and (and (and (and (and (and (and (and (and (and (and (and (and (and (and (and (and (and (and (and (and (and (and (and (and (and (and (and (and (and (and (and (and (and (and (and (and (and (and (and (and (and (and (and (and (and (and (and (and (and (and (and (and (and (and (and (and (and (and (and (and (and (and (and (and (and (and (and (and (and (and (and (and (and (and (and (and (and (and (and (and (and (and (and (and (and (and (and (and (and (and (and (and (and (and (and (and (and (and (and (and (and (and (and (and (and (and (and (and (and (and (and (and (and (and (and (and (and (and (and (and (and (and (and (and (and (and (and (and (and (and (and (and (and (and (and (and (and (and (and (and (and (and (and (and (and (and (and (and (and (and (and (and (and (and (and (and (and (and (and (and (and (and (and (and (and (and (and (and (and (and (and (and (and (and (and (and (and (and (and (and (and (and (and (and (and (and (and (and (and (and (and (and (and (and (and (and (and (and (and (and (and (and (and (and (and (and (and (and (and (and (and (and (and (and (and (and (and (and (and (and (and (and (and (and (and (and (and (and (and (and (and (and (and (and (and (and (and (and (and (and (and (and (and (and (and (and (and (and (and (and (and (and (and (and (and (and (and (and (and (and (and (and (and (and (and (and (and (and (and (and (and (and (and (and (and (and (and (and (and (and (and (and (and (and (and (and (and (and (and (and (and (and (and (and (and (and (and (and (and (and (and (and (and (and (and (and (and (and (and (and (and (and (and (and (and (and (and (and (and (and (and (and (and (and (and (and (and (and (and (and (and (and (and (and (and (and (and (and (and (and (and (and (and (and (and (and (and (and (and (and (and (and (and (and (and (and (and (and (and (and (and (and (and (and (and (and (and (and (and (and (and (and (and (and (and (and (and (and (and (and (and (and (and (and (and (and (and (and (and (and (and (and (and (and (and (and (and (and (and (and (and (and (and (and (and (and (and (and (and (and (and (and (and (and (and (and (and (and (and (and (and (and (and (and (and (and (and (and (and (and (and (and (and (and (and (and (and (and (and (and (and (and (and (and (and (and (and (and (and (and (and (and (and (and (and (and (and (and (and (and (and (and (and (and (and (and (and (and (and (and (and (and (and (and (and (and (and (and (and (and (and (and (and (and (and (and (and (and (and (and (and (and (and (and (and (and (and (and (and (and (and (and (and (and (and (and (and (and (and (and (and (and (and (and (and (and (and (and (and (and (and (and (and (and (and (and (and (and (and (and (and (and (and (and (and (and (and (and (and (and (and (and (and (and (and (and (and (and (and (and (and (and (and (and (and (and (and (and (and (and (and (and (and (and (and (and (and (and (and (and (and (or (or ?v_42 P6) P1) (or (or ?v_233 ?v_23) ?v_78)) (or (or ?v_129 ?v_81) ?v_15)) (or (or ?v_102 ?v_189) ?v_75)) (or (or ?v_30 ?v_38) P11)) (or (or ?v_3 P19) P12)) (or (or ?v_2 ?v_82) ?v_54)) (or (or ?v_5 ?v_17) ?v_143)) (or (or P35 P41) ?v_1)) (or (or ?v_64 ?v_184) ?v_25)) (or (or ?v_125 ?v_12) ?v_71)) (or (or ?v_55 P34) P45)) (or (or ?v_134 ?v_48) ?v_2)) (or (or ?v_18 ?v_9) ?v_3)) (or (or ?v_4 P41) ?v_8)) (or (or ?v_11 P11) ?v_13)) (or (or ?v_14 P16) ?v_7)) (or (or ?v_5 ?v_22) ?v_69)) (or (or ?v_191 ?v_10) ?v_90)) (or (or ?v_232 ?v_43) ?v_24)) (or (or P2 ?v_31) P37)) (or (or ?v_28 ?v_58) ?v_113)) (or (or ?v_186 ?v_11) ?v_12)) (or (or ?v_26 P8) ?v_172)) (or (or ?v_257 ?v_13) ?v_10)) (or ?v_37 P18)) (or (or ?v_103 ?v_139) P49)) (or (or ?v_16 P25) P23)) (or (or ?v_73 ?v_207) ?v_173)) (or (or ?v_157 ?v_18) ?v_3)) (or (or ?v_127 ?v_70) ?v_47)) (or (or ?v_29 ?v_22) ?v_59)) (or (or ?v_85 P21) ?v_23)) (or (or ?v_108 P19) ?v_56)) (or (or ?v_220 ?v_162) ?v_25)) (or (or ?v_96 ?v_26) ?v_27)) (or (or ?v_203 ?v_45) ?v_120)) (or (or ?v_41 ?v_109) ?v_39)) (or (or ?v_34 ?v_46) ?v_66)) (or (or ?v_29 ?v_216) ?v_141)) (or (or ?v_124 ?v_231) P40)) (or (or ?v_72 ?v_174) ?v_23)) (or (or P23 ?v_31) ?v_32)) (or (or P32 ?v_87) ?v_17)) (or (or ?v_31 ?v_33) ?v_34)) (or (or ?v_53 ?v_154) ?v_36)) (or ?v_37 ?v_65)) (or (or ?v_39 ?v_130) ?v_242)) (or (or ?v_40 ?v_97) P3)) (or (or ?v_160 ?v_42) ?v_153)) (or (or ?v_190 P35) ?v_43)) (or (or ?v_52 ?v_128) ?v_148)) (or (or P15 ?v_88) ?v_43)) (or (or ?v_57 ?v_45) ?v_46)) (or (or ?v_47 P42) ?v_196)) (or (or ?v_49 ?v_50) ?v_76)) (or (or ?v_52 P47) ?v_53)) (or (or P11 ?v_50) ?v_84)) (or (or ?v_54 P1) ?v_241)) (or (or ?v_167 ?v_55) ?v_163)) (or (or ?v_101 ?v_150) ?v_56)) (or (or ?v_57 ?v_58) ?v_225)) (or (or ?v_77 P40) ?v_59)) (or (or ?v_159 ?v_60) ?v_133)) (or (or P31 ?v_61) ?v_62)) (or (or ?v_62 ?v_106) ?v_13)) (or (or P15 ?v_248) P33)) (or (or ?v_117 ?v_64) ?v_218)) (or (or ?v_50 ?v_65) ?v_18)) (or (or ?v_66 ?v_67) ?v_137)) (or (or P31 ?v_179) ?v_183)) (or (or ?v_142 ?v_2) ?v_111)) (or (or P12 ?v_69) ?v_70)) (or (or ?v_30 ?v_71) ?v_4)) (or (or ?v_105 ?v_72) ?v_197)) (or (or ?v_135 ?v_86) ?v_80)) (or (or ?v_41 ?v_65) ?v_146)) (or (or ?v_76 ?v_77) ?v_78)) (or (or ?v_79 ?v_14) ?v_80)) (or (or ?v_67 ?v_132) ?v_82)) (or (or ?v_29 ?v_52) ?v_83)) (or (or P7 ?v_3) ?v_84)) (or (or ?v_85 ?v_147) ?v_182)) (or (or ?v_25 ?v_87) ?v_88)) (or (or ?v_89 P12) ?v_91)) (or (or ?v_92 P24) ?v_90)) (or (or ?v_53 P4) ?v_91)) (or (or ?v_212 P2) ?v_11)) (or (or ?v_93 P22) ?v_15)) (or (or ?v_73 ?v_94) ?v_95)) (or (or ?v_195 ?v_25) ?v_118)) (or (or ?v_79 ?v_97) ?v_98)) (or (or ?v_99 ?v_4) ?v_243)) (or (or ?v_100 ?v_89) ?v_46)) (or (or ?v_42 P41) ?v_5)) (or (or ?v_38 ?v_73) P25)) (or (or ?v_88 ?v_101) ?v_97)) (or (or ?v_11 ?v_36) ?v_34)) (or (or ?v_201 ?v_103) ?v_73)) (or (or ?v_104 ?v_105) ?v_102)) (or (or ?v_251 ?v_14) ?v_43)) (or (or ?v_106 ?v_28) ?v_79)) (or (or ?v_107 ?v_25) ?v_108)) (or (or ?v_55 ?v_77) ?v_199)) (or (or ?v_87 ?v_109) P17)) (or (or ?v_110 ?v_22) ?v_111)) (or (or ?v_112 ?v_113) P27)) (or (or ?v_82 ?v_114) ?v_70)) (or (or ?v_161 ?v_88) ?v_155)) (or (or P4 ?v_117) ?v_54)) (or (or ?v_38 ?v_17) ?v_69)) (or (or ?v_40 ?v_118) ?v_119)) (or (or ?v_84 ?v_111) ?v_75)) (or (or ?v_56 ?v_119) ?v_120)) (or (or ?v_14 ?v_247) ?v_169)) (or (or ?v_102 ?v_121) ?v_96)) (or (or ?v_50 P19) ?v_113)) (or (or ?v_145 P49) ?v_122)) (or (or P40 ?v_123) ?v_34)) (or (or ?v_78 ?v_56) ?v_85)) (or (or ?v_252 ?v_158) ?v_124)) (or (or ?v_244 P46) ?v_52)) (or (or ?v_38 ?v_125) ?v_126)) (or (or ?v_127 ?v_90) ?v_128)) (or (or ?v_107 ?v_124) ?v_55)) (or (or ?v_129 ?v_104) ?v_140)) (or (or ?v_130 P10) P16)) (or (or ?v_91 ?v_131) ?v_30)) (or (or ?v_239 ?v_109) P35)) (or (or ?v_149 ?v_1) ?v_12)) (or (or P40 ?v_132) ?v_4)) (or (or ?v_133 ?v_152) ?v_42)) (or (or ?v_134 ?v_62) ?v_104)) (or (or ?v_135 ?v_18) ?v_136)) (or (or ?v_125 ?v_120) P31)) (or (or ?v_221 ?v_137) P26)) (or (or P15 ?v_138) ?v_127)) (or (or ?v_107 P14) ?v_205)) (or (or ?v_187 ?v_2) ?v_139)) (or (or P46 ?v_120) ?v_28)) (or (or ?v_140 ?v_141) ?v_142)) (or (or ?v_143 ?v_82) ?v_138)) (or (or ?v_72 ?v_50) ?v_92)) (or (or ?v_104 ?v_144) ?v_30)) (or (or ?v_208 ?v_77) ?v_13)) (or (or P18 P2) ?v_200)) (or (or ?v_34 P42) ?v_13)) (or (or ?v_132 ?v_145) P38)) (or (or ?v_84 ?v_170) ?v_10)) (or (or ?v_146 ?v_147) ?v_81)) (or (or ?v_148 ?v_149) ?v_151)) (or (or ?v_87 ?v_107) ?v_135)) (or (or P11 ?v_150) ?v_54)) (or (or ?v_151 ?v_113) ?v_126)) (or (or P10 ?v_122) ?v_71)) (or (or ?v_152 ?v_126) ?v_153)) (or (or ?v_138 ?v_154) ?v_155)) (or (or P9 ?v_82) ?v_42)) (or (or ?v_62 ?v_117) ?v_122)) (or (or ?v_147 ?v_142) ?v_149)) (or (or ?v_145 P42) ?v_55)) (or (or ?v_156 ?v_152) ?v_157)) (or (or ?v_237 P19) ?v_158)) (or (or ?v_159 ?v_136) ?v_160)) (or (or ?v_161 ?v_162) ?v_131)) (or (or ?v_67 P9) ?v_151)) (or (or ?v_87 ?v_106) P4)) (or (or ?v_77 ?v_81) ?v_163)) (or (or ?v_118 P25) ?v_91)) (or (or ?v_33 ?v_77) ?v_164)) (or (or ?v_165 ?v_10) ?v_100)) (or (or ?v_121 ?v_122) ?v_38)) (or (or ?v_171 ?v_166) ?v_27)) (or (or ?v_229 P39) ?v_156)) (or (or ?v_125 P18) P22)) (or (or ?v_9 ?v_164) ?v_49)) (or (or P20 ?v_112) ?v_17)) (or (or ?v_167 ?v_164) ?v_240)) (or (or ?v_75 ?v_188) ?v_95)) (or (or ?v_209 ?v_206) ?v_27)) (or (or ?v_168 ?v_219) ?v_198)) (or (or P41 ?v_169) ?v_139)) (or (or ?v_170 P1) ?v_125)) (or (or P23 P18) ?v_142)) (or (or ?v_160 P33) ?v_129)) (or (or P32 ?v_144) ?v_150)) (or (or P7 P11) ?v_148)) (or (or P26 ?v_171) ?v_108)) (or (or ?v_4 ?v_33) ?v_93)) (or (or ?v_91 ?v_27) ?v_172)) (or (or ?v_110 P37) ?v_173)) (or (or ?v_97 P49) ?v_164)) (or (or ?v_98 ?v_174) ?v_254)) (or (or ?v_46 ?v_170) P19)) (or (or ?v_176 P39) P4)) (or (or ?v_177 ?v_49) ?v_92)) (or (or ?v_112 P32) ?v_27)) (or (or ?v_89 ?v_172) ?v_119)) (or (or ?v_178 ?v_55) ?v_234)) (or (or ?v_148 P25) P19)) (or (or P14 P33) ?v_149)) (or (or ?v_169 ?v_60) ?v_126)) (or (or ?v_134 ?v_101) ?v_42)) (or (or ?v_179 ?v_161) ?v_170)) (or (or ?v_97 P23) ?v_60)) (or (or ?v_149 ?v_62) ?v_24)) (or (or ?v_114 ?v_162) ?v_180)) (or (or ?v_70 ?v_169) ?v_147)) (or (or ?v_94 P15) ?v_181)) (or (or P46 ?v_112) ?v_142)) (or (or ?v_34 P12) ?v_82)) (or (or ?v_80 ?v_153) ?v_84)) (or (or ?v_182 ?v_91) P44)) (or (or ?v_69 ?v_140) P24)) (or (or ?v_118 ?v_236) ?v_148)) (or (or ?v_211 ?v_146) ?v_185)) (or (or ?v_186 ?v_165) ?v_187)) (or (or P13 ?v_184) ?v_188)) (or (or ?v_69 ?v_189) ?v_138)) (or (or P5 ?v_72) ?v_4)) (or (or P12 ?v_34) P47)) (or (or ?v_46 ?v_1) ?v_45)) (or (or ?v_45 ?v_131) ?v_141)) (or (or ?v_52 ?v_125) ?v_42)) (or (or ?v_124 ?v_113) P38)) (or (or ?v_183 ?v_64) (not P26))) (or (or P29 ?v_190) ?v_174)) (or (or ?v_58 ?v_182) ?v_53)) (or (or ?v_105 ?v_100) ?v_165)) (or (or ?v_91 P14) ?v_191)) (or (or ?v_192 ?v_181) ?v_162)) (or (or ?v_110 ?v_75) ?v_193)) (or (or ?v_194 ?v_150) ?v_195)) (or (or ?v_226 (not P16)) ?v_196)) (or (or ?v_223 ?v_134) P38)) (or (or ?v_202 ?v_86) P26)) (or (or ?v_154 P45) ?v_53)) (or (or ?v_227 ?v_33) ?v_75)) (or (or ?v_5 ?v_197) ?v_198)) (or (or ?v_65 ?v_65) ?v_100)) (or (or ?v_126 ?v_55) ?v_89)) (or (or ?v_184 P18) ?v_62)) (or (or ?v_138 ?v_125) ?v_7)) (or (or P44 ?v_173) ?v_199)) (or (or P20 ?v_210) ?v_190)) (or (or ?v_86 ?v_142) ?v_73)) (or (or ?v_235 ?v_58) ?v_200)) (or (or ?v_8 ?v_158) ?v_113)) (or (or ?v_143 P4) ?v_176)) (or (or P33 ?v_201) ?v_59)) (or (or ?v_202 ?v_199) P43)) (or (or ?v_110 ?v_203) ?v_84)) (or (or ?v_75 ?v_40) ?v_204)) (or (or ?v_176 ?v_60) P23)) (or (or ?v_101 ?v_14) P34)) (or (or ?v_230 ?v_205) ?v_142)) (or (or ?v_58 ?v_88) P28)) (or (or ?v_148 ?v_206) ?v_207)) (or (or ?v_124 ?v_145) ?v_208)) (or (or ?v_71 ?v_209) ?v_140)) (or (or ?v_34 ?v_157) ?v_4)) (or (or ?v_94 ?v_159) ?v_89)) (or (or ?v_166 ?v_100) ?v_93)) (or (or ?v_36 ?v_138) ?v_146)) (or (or P43 ?v_105) ?v_207)) (or (or ?v_160 ?v_136) ?v_128)) (or (or ?v_148 ?v_210) ?v_156)) (or (or ?v_121 ?v_67) ?v_211)) (or (or ?v_48 ?v_260) ?v_161)) (or (or ?v_62 ?v_192) P45)) (or (or ?v_122 ?v_142) ?v_18)) (or (or ?v_212 P18) ?v_213)) (or (or ?v_164 ?v_137) ?v_13)) (or (or P44 ?v_53) ?v_146)) (or (or P20 ?v_43) ?v_151)) (or (or ?v_215 P27) ?v_214)) (or (or ?v_8 ?v_215) ?v_80)) (or (or ?v_83 P25) ?v_216)) (or (or P1 P48) ?v_121)) (or (or ?v_1 P19) ?v_217)) (or (or ?v_42 ?v_103) P25)) (or (or ?v_218 ?v_219) ?v_124)) (or (or ?v_97 ?v_58) P2)) (or (or ?v_59 ?v_211) ?v_220)) (or (or ?v_258 ?v_72) ?v_17)) (or (or ?v_142 ?v_206) ?v_27)) (or (or ?v_106 ?v_221) ?v_119)) (or (or ?v_168 ?v_217) ?v_57)) (or (or ?v_9 ?v_185) ?v_107)) (or (or ?v_218 ?v_152) P13)) (or (or ?v_88 ?v_113) ?v_122)) (or (or ?v_249 ?v_106) ?v_62)) (or (or ?v_222 ?v_223) ?v_214)) (or (or ?v_93 ?v_164) ?v_108)) (or (or ?v_128 P11) ?v_4)) (or (or ?v_180 ?v_69) ?v_176)) (or (or ?v_170 P41) ?v_81)) (or (or ?v_94 ?v_95) P1)) (or (or ?v_224 P34) P35)) (or (or ?v_196 ?v_54) P36)) (or (or ?v_181 P6) ?v_225)) (or (or ?v_226 P4) ?v_227)) (or (or ?v_84 ?v_56) P20)) (or (or ?v_171 ?v_69) P14)) (or (or ?v_98 ?v_214) ?v_18)) (or (or ?v_23 ?v_162) P11)) (or (or ?v_172 ?v_203) ?v_141)) (or (or ?v_228 ?v_229) P40)) (or (or P47 ?v_47) P45)) (or (or ?v_89 ?v_55) P42)) (or (or ?v_214 ?v_141) ?v_155)) (or (or ?v_140 ?v_119) ?v_24)) (or (or ?v_92 ?v_98) P49)) (or (or ?v_31 ?v_45) ?v_230)) (or (or ?v_231 ?v_77) ?v_62)) (or (or ?v_220 P44) ?v_78)) (or (or ?v_193 ?v_57) P30)) (or (or P45 ?v_27) ?v_232)) (or (or ?v_34 ?v_27) ?v_225)) (or (or P7 ?v_96) ?v_110)) (or (or P46 ?v_9) ?v_17)) (or (or ?v_233 ?v_98) ?v_214)) (or (or ?v_157 P33) ?v_206)) (or (or ?v_80 ?v_78) ?v_208)) (or (or ?v_106 ?v_234) P46)) (or (or ?v_66 ?v_190) ?v_230)) (or (or ?v_235 ?v_122) ?v_97)) (or (or ?v_236 P10) ?v_237)) (or (or ?v_60 P45) ?v_199)) (or (or ?v_238 ?v_230) P15)) (or (or ?v_26 P23) ?v_42)) (or (or ?v_86 ?v_204) ?v_144)) (or (or ?v_125 P41) ?v_159)) (or (or ?v_239 ?v_250) ?v_163)) (or (or ?v_219 ?v_255) ?v_240)) (or (or ?v_133 ?v_210) ?v_13)) (or (or ?v_207 ?v_229) ?v_241)) (or (or P22 ?v_67) ?v_148)) (or (or ?v_65 ?v_174) P16)) (or (or P8 ?v_147) ?v_95)) (or (or ?v_23 ?v_113) ?v_107)) (or (or ?v_91 ?v_43) ?v_185)) (or (or ?v_9 ?v_75) ?v_88)) (or (or ?v_107 ?v_2) ?v_190)) (or (or ?v_136 ?v_76) ?v_108)) (or (or ?v_195 P47) P19)) (or (or P46 ?v_127) ?v_53)) (or (or ?v_101 ?v_10) ?v_159)) (or (or ?v_224 ?v_242) ?v_243)) (or (or ?v_154 ?v_52) ?v_84)) (or (or ?v_159 P1) ?v_235)) (or (or ?v_133 ?v_154) P29)) (or (or ?v_184 ?v_169) ?v_244)) (or (or ?v_154 ?v_133) ?v_101)) (or (or P37 P40) ?v_143)) (or (or P45 P42) ?v_182)) (or (or ?v_231 ?v_61) ?v_39)) (or (or ?v_53 ?v_142) ?v_223)) (or (or ?v_54 ?v_124) ?v_3)) (or (or ?v_87 ?v_179) ?v_134)) (or (or ?v_113 ?v_191) ?v_256)) (or (or ?v_245 ?v_163) ?v_67)) (or (or P47 ?v_171) ?v_177)) (or (or P49 ?v_8) ?v_246)) (or (or ?v_223 ?v_157) ?v_145)) (or (or ?v_247 ?v_152) ?v_161)) (or (or ?v_27 ?v_114) ?v_187)) (or (or ?v_233 ?v_238) P23)) (or (or ?v_248 ?v_64) P5)) (or (or ?v_124 ?v_241) ?v_171)) (or (or P27 ?v_105) ?v_238)) (or (or ?v_249 ?v_65) ?v_54)) (or (or ?v_112 ?v_199) ?v_197)) (or (or ?v_82 ?v_240) ?v_179)) (or (or ?v_223 ?v_242) P32)) (or (or ?v_132 ?v_166) ?v_10)) (or (or P0 P5) ?v_52)) (or (or ?v_177 ?v_250) ?v_1)) (or (or ?v_237 ?v_247) P20)) (or (or ?v_97 ?v_10) ?v_251)) (or (or ?v_53 ?v_49) ?v_112)) (or (or ?v_216 P1) ?v_153)) (or (or ?v_252 ?v_89) ?v_45)) (or (or ?v_32 ?v_159) ?v_131)) (or (or P18 ?v_174) P11)) (or (or P44 ?v_43) ?v_23)) (or (or ?v_143 ?v_253) ?v_183)) (or (or ?v_49 ?v_232) ?v_252)) (or (or ?v_180 P23) ?v_241)) (or (or ?v_89 ?v_135) ?v_139)) (or (or ?v_50 P4) ?v_191)) (or (or ?v_76 ?v_89) ?v_249)) (or (or ?v_247 ?v_40) ?v_238)) (or (or ?v_246 P44) ?v_31)) (or (or ?v_222 ?v_211) ?v_112)) (or (or ?v_30 ?v_12) ?v_211)) (or (or ?v_205 ?v_205) ?v_202)) (or (or ?v_14 ?v_249) P9)) (or (or ?v_145 ?v_179) ?v_150)) (or (or ?v_60 ?v_200) ?v_253)) (or (or ?v_195 ?v_227) ?v_33)) (or (or ?v_131 ?v_113) ?v_58)) (or (or ?v_49 ?v_213) P20)) (or ?v_262 ?v_3)) (or (or ?v_218 P35) ?v_119)) (or (or P26 ?v_92) ?v_217)) (or (or ?v_240 P1) ?v_205)) (or (or ?v_108 ?v_76) ?v_237)) (or (or ?v_73 ?v_151) ?v_113)) (or (or ?v_146 ?v_70) ?v_157)) (or (or P46 ?v_119) P21)) (or (or ?v_111 ?v_120) ?v_46)) (or (or ?v_61 ?v_127) P41)) (or (or ?v_17 ?v_107) ?v_39)) (or (or P46 ?v_214) ?v_167)) (or (or ?v_209 ?v_227) ?v_182)) (or (or ?v_9 ?v_132) ?v_57)) (or (or ?v_220 ?v_235) ?v_246)) (or (or P1 ?v_33) ?v_10)) (or (or ?v_242 ?v_140) ?v_89)) (or (or ?v_60 P22) ?v_207)) (or (or ?v_139 ?v_134) ?v_92)) (or (or ?v_10 P30) ?v_23)) (or (or P25 ?v_4) ?v_221)) (or (or ?v_149 ?v_217) ?v_198)) (or (or ?v_41 ?v_92) ?v_93)) (or (or ?v_31 ?v_106) ?v_188)) (or (or ?v_78 ?v_110) ?v_183)) (or (or ?v_102 P13) P41)) (or (or ?v_5 ?v_243) ?v_120)) (or (or ?v_47 ?v_164) ?v_2)) (or (or ?v_126 ?v_182) ?v_173)) (or (or P44 ?v_128) ?v_117)) (or (or ?v_33 ?v_87) ?v_58)) (or (or ?v_210 ?v_102) ?v_53)) (or (or ?v_251 ?v_246) ?v_29)) (or (or ?v_151 ?v_259) ?v_173)) (or (or ?v_113 ?v_65) ?v_216)) (or (or ?v_113 P48) ?v_239)) (or (or ?v_56 ?v_91) ?v_212)) (or (or P11 ?v_232) ?v_212)) (or (or ?v_54 P4) ?v_223)) (or (or ?v_147 ?v_167) ?v_251)) (or (or ?v_58 ?v_1) ?v_80)) (or (or P47 ?v_193) ?v_49)) (or (or ?v_155 P32) ?v_198)) (or (or ?v_85 ?v_91) ?v_252)) (or (or ?v_238 ?v_243) ?v_199)) (or (or ?v_148 ?v_174) P18)) (or (or ?v_99 ?v_77) P27)) (or (or ?v_174 ?v_168) ?v_229)) (or (or P36 ?v_15) ?v_254)) (or (or ?v_200 ?v_170) ?v_42)) (or (or P43 ?v_125) ?v_29)) (or (or ?v_31 ?v_62) ?v_134)) (or (or P49 ?v_195) ?v_83)) (or (or ?v_173 P14) ?v_217)) (or (or ?v_3 ?v_255) ?v_211)) (or (or ?v_122 ?v_256) ?v_170)) (or (or ?v_17 ?v_99) P28)) (or (or ?v_111 ?v_139) ?v_77)) (or (or ?v_100 ?v_43) ?v_257)) (or (or ?v_39 ?v_187) ?v_169)) (or (or ?v_201 P19) ?v_248)) (or (or ?v_64 ?v_207) P43)) (or (or ?v_18 ?v_211) ?v_172)) (or (or P19 ?v_168) ?v_238)) (or (or ?v_163 ?v_201) P16)) (or (or ?v_58 ?v_156) ?v_148)) (or (or ?v_242 ?v_156) ?v_232)) (or (or ?v_172 ?v_36) ?v_111)) (or (or ?v_247 ?v_258) ?v_8)) (or (or ?v_206 ?v_78) ?v_80)) (or (or ?v_259 ?v_33) ?v_183)) (or (or ?v_240 ?v_219) ?v_76)) (or (or ?v_45 ?v_4) ?v_193)) (or (or ?v_261 ?v_148) ?v_151)) (or (or ?v_251 ?v_202) ?v_127)) (or (or ?v_205 ?v_183) ?v_67)) (or (or ?v_112 ?v_241) ?v_227)) (or (or ?v_201 P7) ?v_213)) (or (or P23 ?v_114) P40)) (or (or ?v_107 ?v_238) ?v_147)) (or (or ?v_154 ?v_109) ?v_134)) (or (or ?v_191 ?v_193) ?v_105)) (or (or ?v_224 ?v_161) ?v_16)) (or (or ?v_233 ?v_229) ?v_34)) (or (or ?v_137 ?v_95) ?v_195)) (or (or ?v_252 ?v_126) P23)) (or (or ?v_87 ?v_242) ?v_126)) (or (or ?v_166 P19) ?v_24)) (or (or P25 ?v_205) ?v_111)) (or (or ?v_259 ?v_135) ?v_255)) (or (or ?v_249 ?v_86) (not ?v_189))) (or (or ?v_7 ?v_107) ?v_28)) (or (or ?v_61 ?v_60) ?v_150)) (or (or ?v_170 P24) ?v_10)) (or (or ?v_138 ?v_99) ?v_229)) (or (or ?v_82 ?v_40) ?v_65)) (or (or ?v_139 ?v_229) ?v_129)) (or (or ?v_58 P28) ?v_208)) (or (or ?v_43 ?v_186) P18)) (or (or ?v_182 P35) ?v_218)) (or (or ?v_36 ?v_24) ?v_258)) (or (or ?v_247 ?v_72) ?v_105)) (or (or ?v_209 ?v_190) ?v_10)) (or (or ?v_30 ?v_25) ?v_128)) (or (or ?v_94 ?v_12) P24)) (or (or P48 P18) ?v_239)) (or (or ?v_260 ?v_216) ?v_230)) (or (or P21 ?v_124) ?v_27)) (or (or P42 ?v_95) ?v_140)) (or (or ?v_61 ?v_1) ?v_38)) (or (or ?v_81 ?v_8) ?v_165)) (or (or ?v_78 ?v_214) P48)) (or (or P14 ?v_147) ?v_168)) (or (or ?v_250 ?v_108) ?v_92)) (or (or P41 ?v_3) P3)) (or (or P49 P47) ?v_113)) (or (or ?v_55 ?v_32) ?v_47)) (or (or ?v_130 ?v_13) ?v_246)) (or (or ?v_243 P16) ?v_90)) (or (or ?v_5 P10) ?v_117)) (or (or ?v_220 P6) ?v_67)) (or (or P27 ?v_189) ?v_12)) (or (or ?v_25 ?v_209) ?v_191)) (or (or P15 P35) ?v_246)) (or (or P42 ?v_72) ?v_57)) (or (or ?v_256 ?v_111) P12)) (or (or ?v_172 ?v_208) ?v_141)) (or (or ?v_22 ?v_142) P43)) (or (or ?v_14 ?v_241) P13)) (or (or ?v_253 ?v_219) ?v_106)) (or (or P31 ?v_250) ?v_118)) (or (or ?v_261 ?v_98) P7)) (or (or ?v_211 ?v_41) ?v_244)) (or (or ?v_31 ?v_79) P10)) (or (or P9 ?v_84) ?v_228)) (or (or ?v_30 ?v_46) ?v_160)) (or (or ?v_93 ?v_232) ?v_58)) (or (or ?v_122 ?v_101) ?v_77)) (or (or ?v_135 ?v_156) ?v_9)) (or (or ?v_89 ?v_209) ?v_229)) (or (or ?v_104 ?v_45) ?v_178)) (or (or ?v_183 ?v_134) ?v_187)) (or (or ?v_260 ?v_251) ?v_59)) (or (or P15 ?v_117) ?v_235)) (or (or ?v_108 ?v_194) ?v_58)) (or (or ?v_154 ?v_185) ?v_61)) (or (or P43 ?v_33) ?v_25)) (or (or P35 ?v_209) ?v_153)) (or (or ?v_186 ?v_225) ?v_149)) (or (or ?v_248 ?v_212) ?v_114)) (or (or ?v_254 ?v_117) ?v_12)) (or (or ?v_140 ?v_197) ?v_106)) (or (or ?v_33 ?v_24) ?v_39)) (or (or ?v_164 ?v_177) ?v_23)) (or (or ?v_120 ?v_250) ?v_73)) (or (or ?v_220 ?v_78) ?v_258)) (or (or ?v_42 ?v_25) ?v_230)) (or (or ?v_85 ?v_3) ?v_5)) (or (or ?v_66 P32) ?v_181)) (or (or P34 ?v_171) ?v_79)) (or (or ?v_134 ?v_132) ?v_131)) (or (or ?v_186 P16) ?v_223)) (or (or P20 ?v_258) ?v_250)) (or (or ?v_241 ?v_42) P19)) (or (or ?v_66 ?v_154) ?v_174)) (or (or ?v_217 ?v_69) ?v_223)) (or (or ?v_43 ?v_83) ?v_208)) (or (or ?v_197 ?v_201) P49)) (or (or P9 ?v_235) ?v_106)) (or (or ?v_199 ?v_253) ?v_246)) (or (or P5 ?v_133) ?v_218)) (or (or ?v_190 ?v_101) P44)) (or (or ?v_33 ?v_231) ?v_53)) (or (or P19 ?v_228) ?v_16)) (or (or ?v_255 ?v_56) ?v_158)) (or (or ?v_126 ?v_229) ?v_226)) (or (or ?v_80 ?v_224) ?v_64)) (or (or P0 ?v_125) ?v_128)) (or (or ?v_92 ?v_11) ?v_181)) (or (or P25 ?v_254) ?v_54)) (or (or ?v_99 ?v_131) ?v_235)) (or (or P39 ?v_234) ?v_193)) (or (or P14 ?v_33) ?v_62)) (or (or ?v_224 ?v_86) ?v_110)) (or (or ?v_144 ?v_65) ?v_247)) (or (or P30 ?v_56) ?v_235)) (or (or ?v_79 P36) ?v_99)) (or (or ?v_52 ?v_189) ?v_47)) (or (or ?v_235 ?v_225) ?v_190)) (or (or ?v_25 ?v_54) ?v_34)) (or (or ?v_224 ?v_9) ?v_258)) (or (or ?v_129 ?v_138) ?v_141)) (or (or ?v_94 ?v_55) ?v_24)) (or (or ?v_215 ?v_242) ?v_124)) (or ?v_262 ?v_83)) (or (or ?v_240 ?v_199) ?v_57)) (or (or ?v_48 ?v_108) ?v_260)))))))))))))))))))))))))))))))))))))))))))))
(check-sat)
(exit)
